p cnf 28 71
a 8 1 0
e 2 3 4 5 6 7 9 10 11 12 13 14 15 16 17 18 19 20 21 22 23 24 25 26 27 28 0
-1 -2 -3 0
1 2 -3 0
-1 2 3 0
1 -2 3 0
5 3 0
5 -4 0
-3 4 -5 0
7 -6 0
7 -3 0
6 3 -7 0
-3 7 -8 0
3 -7 -8 0
-3 -7 8 0
3 7 8 0
5 -8 -9 0
-5 8 -9 0
5 8 9 0
-5 -8 9 0
-10 -6 -11 0
10 6 -11 0
-10 6 11 0
10 -6 11 0
-12 -3 -13 0
12 3 -13 0
-12 3 13 0
12 -3 13 0
4 13 -14 0
-4 -13 -14 0
4 -13 14 0
-4 13 14 0
-16 15 0
-16 -3 0
-15 3 16 0
16 -6 -17 0
-16 6 -17 0
16 6 17 0
-16 -6 17 0
19 17 0
19 -18 0
-17 18 -19 0
-14 -19 -20 0
14 19 -20 0
-14 19 20 0
14 -19 20 0
-21 -11 0
-21 20 0
11 -20 21 0
9 21 -22 0
-9 -21 -22 0
9 -21 22 0
-9 21 22 0
-24 23 0
-24 10 0
-23 -10 24 0
-4 -25 -26 0
4 25 -26 0
-4 25 26 0
4 -25 26 0
-27 24 0
-27 -26 0
-24 26 27 0
28 -22 0
28 27 0
22 -27 -28 0
-19 11 10 -23 28 -5 26 0
-19 12 9 -2 25 -20 0
25 17 -3 -12 20 23 7 0
-25 -12 1 0
4 26 -8 21 14 0
5 -25 -26 2 18 0
28 0
